87,39
63,45
5,71
71,13
59,63
45,95
29,13
51,79
7,67
25,85
1,7
72,14
28,86
52,86
46,100
66,46
28,90
16,70
2,14
79,21
14,72
32,88
6,72
73,15
2,12
73,21
12,76
66,72
2,16
38,16
30,88
68,54
32,14
64,46
26,88
62,68
34,16
8,68
77,15
73,15
75,15
8,68
36,20
56,82
26,88
28,86
52,84
60,70
26,86
8,72
76,16
6,76
14,72
78,14
34,92
74,14
64,46
10,74
6,8
28,88
60,64
6,78
46,102
77,23
68,66
58,80
58,84
36,14
